robust/generate/spp_dkp_Lefebvre_et_al_2026/src/shortest_path_4_10.kp
52
89

[7.33 0.23 1.88 5.5 0.87 5.52 0.48 8.55 8.73 4.64]

[25 39 77 60 15 85 72 89 69 23]
