robust/generate/spp_dkp_Lefebvre_et_al_2026/src/shortest_path_4_10.mps
* Signature: 0xdf8e95fb0fdc88e3
NAME sp_4_10
ROWS
 N  OBJ
 E  flow_cons_inner_nodes[2]
 E  flow_cons_inner_nodes[3]
 E  flow_cons_source
 E  flow_cons_target
 L  primal_lower
 L  mccormick1[0,2]
 L  mccormick1[0,3]
 L  mccormick1[1,2]
 L  mccormick1[1,3]
 L  mccormick1[2,0]
 L  mccormick1[2,1]
 L  mccormick1[2,3]
 L  mccormick1[3,0]
 L  mccormick1[3,1]
 L  mccormick1[3,2]
 L  mccormick2[0,2]
 L  mccormick2[0,3]
 L  mccormick2[1,2]
 L  mccormick2[1,3]
 L  mccormick2[2,0]
 L  mccormick2[2,1]
 L  mccormick2[2,3]
 L  mccormick2[3,0]
 L  mccormick2[3,1]
 L  mccormick2[3,2]
 G  mccormick3[0,2]
 G  mccormick3[0,3]
 G  mccormick3[1,2]
 G  mccormick3[1,3]
 G  mccormick3[2,0]
 G  mccormick3[2,1]
 G  mccormick3[2,3]
 G  mccormick3[3,0]
 G  mccormick3[3,1]
 G  mccormick3[3,2]
COLUMNS
    MARKER    'MARKER'                 'INTORG'
    y[0,2]    OBJ       49.09
    y[0,2]    flow_cons_inner_nodes[2]  1
    y[0,2]    flow_cons_source  1
    y[0,2]    primal_lower  -7.33
    y[0,2]    mccormick2[0,2]  -1
    y[0,2]    mccormick3[0,2]  -1
    y[0,3]    OBJ       18.11
    y[0,3]    flow_cons_inner_nodes[3]  1
    y[0,3]    flow_cons_source  1
    y[0,3]    primal_lower  -0.23
    y[0,3]    mccormick2[0,3]  -1
    y[0,3]    mccormick3[0,3]  -1
    y[1,2]    OBJ       35.85
    y[1,2]    flow_cons_inner_nodes[2]  1
    y[1,2]    flow_cons_target  -1
    y[1,2]    primal_lower  -1.88
    y[1,2]    mccormick2[1,2]  -1
    y[1,2]    mccormick3[1,2]  -1
    y[1,3]    OBJ       72.95
    y[1,3]    flow_cons_inner_nodes[3]  1
    y[1,3]    flow_cons_target  -1
    y[1,3]    primal_lower  -5.5
    y[1,3]    mccormick2[1,3]  -1
    y[1,3]    mccormick3[1,3]  -1
    y[2,0]    OBJ       49.09
    y[2,0]    flow_cons_inner_nodes[2]  -1
    y[2,0]    flow_cons_source  -1
    y[2,0]    primal_lower  -0.87
    y[2,0]    mccormick2[2,0]  -1
    y[2,0]    mccormick3[2,0]  -1
    y[2,1]    OBJ       35.85
    y[2,1]    flow_cons_inner_nodes[2]  -1
    y[2,1]    flow_cons_target  1
    y[2,1]    primal_lower  -5.52
    y[2,1]    mccormick2[2,1]  -1
    y[2,1]    mccormick3[2,1]  -1
    y[2,3]    OBJ       43.93
    y[2,3]    flow_cons_inner_nodes[2]  -1
    y[2,3]    flow_cons_inner_nodes[3]  1
    y[2,3]    primal_lower  -0.48
    y[2,3]    mccormick2[2,3]  -1
    y[2,3]    mccormick3[2,3]  -1
    y[3,0]    OBJ       18.11
    y[3,0]    flow_cons_inner_nodes[3]  -1
    y[3,0]    flow_cons_source  -1
    y[3,0]    primal_lower  -8.55
    y[3,0]    mccormick2[3,0]  -1
    y[3,0]    mccormick3[3,0]  -1
    y[3,1]    OBJ       72.95
    y[3,1]    flow_cons_inner_nodes[3]  -1
    y[3,1]    flow_cons_target  1
    y[3,1]    primal_lower  -8.73
    y[3,1]    mccormick2[3,1]  -1
    y[3,1]    mccormick3[3,1]  -1
    y[3,2]    OBJ       43.93
    y[3,2]    flow_cons_inner_nodes[2]  1
    y[3,2]    flow_cons_inner_nodes[3]  -1
    y[3,2]    primal_lower  -4.64
    y[3,2]    mccormick2[3,2]  -1
    y[3,2]    mccormick3[3,2]  -1
    u[0,2]    primal_lower  25
    u[0,2]    mccormick1[0,2]  -1
    u[0,2]    mccormick3[0,2]  -1
    u[0,3]    primal_lower  39
    u[0,3]    mccormick1[0,3]  -1
    u[0,3]    mccormick3[0,3]  -1
    u[1,2]    primal_lower  77
    u[1,2]    mccormick1[1,2]  -1
    u[1,2]    mccormick3[1,2]  -1
    u[1,3]    primal_lower  60
    u[1,3]    mccormick1[1,3]  -1
    u[1,3]    mccormick3[1,3]  -1
    u[2,0]    primal_lower  15
    u[2,0]    mccormick1[2,0]  -1
    u[2,0]    mccormick3[2,0]  -1
    u[2,1]    primal_lower  85
    u[2,1]    mccormick1[2,1]  -1
    u[2,1]    mccormick3[2,1]  -1
    u[2,3]    primal_lower  72
    u[2,3]    mccormick1[2,3]  -1
    u[2,3]    mccormick3[2,3]  -1
    u[3,0]    primal_lower  89
    u[3,0]    mccormick1[3,0]  -1
    u[3,0]    mccormick3[3,0]  -1
    u[3,1]    primal_lower  69
    u[3,1]    mccormick1[3,1]  -1
    u[3,1]    mccormick3[3,1]  -1
    u[3,2]    primal_lower  23
    u[3,2]    mccormick1[3,2]  -1
    u[3,2]    mccormick3[3,2]  -1
    r[0,2]    OBJ       4.9090000000000007e+00
    r[0,2]    mccormick1[0,2]  1
    r[0,2]    mccormick2[0,2]  1
    r[0,2]    mccormick3[0,2]  1
    r[0,3]    OBJ       1.811
    r[0,3]    mccormick1[0,3]  1
    r[0,3]    mccormick2[0,3]  1
    r[0,3]    mccormick3[0,3]  1
    r[1,2]    OBJ       3.5850000000000004e+00
    r[1,2]    mccormick1[1,2]  1
    r[1,2]    mccormick2[1,2]  1
    r[1,2]    mccormick3[1,2]  1
    r[1,3]    OBJ       7.2950000000000008e+00
    r[1,3]    mccormick1[1,3]  1
    r[1,3]    mccormick2[1,3]  1
    r[1,3]    mccormick3[1,3]  1
    r[2,0]    OBJ       4.9090000000000007e+00
    r[2,0]    mccormick1[2,0]  1
    r[2,0]    mccormick2[2,0]  1
    r[2,0]    mccormick3[2,0]  1
    r[2,1]    OBJ       3.5850000000000004e+00
    r[2,1]    mccormick1[2,1]  1
    r[2,1]    mccormick2[2,1]  1
    r[2,1]    mccormick3[2,1]  1
    r[2,3]    OBJ       4.393
    r[2,3]    mccormick1[2,3]  1
    r[2,3]    mccormick2[2,3]  1
    r[2,3]    mccormick3[2,3]  1
    r[3,0]    OBJ       1.811
    r[3,0]    mccormick1[3,0]  1
    r[3,0]    mccormick2[3,0]  1
    r[3,0]    mccormick3[3,0]  1
    r[3,1]    OBJ       7.2950000000000008e+00
    r[3,1]    mccormick1[3,1]  1
    r[3,1]    mccormick2[3,1]  1
    r[3,1]    mccormick3[3,1]  1
    r[3,2]    OBJ       4.393
    r[3,2]    mccormick1[3,2]  1
    r[3,2]    mccormick2[3,2]  1
    r[3,2]    mccormick3[3,2]  1
    MARKER    'MARKER'                 'INTEND'
RHS
    RHS1      flow_cons_source  1
    RHS1      flow_cons_target  1
    RHS1      primal_lower  89
    RHS1      mccormick3[0,2]  -1
    RHS1      mccormick3[0,3]  -1
    RHS1      mccormick3[1,2]  -1
    RHS1      mccormick3[1,3]  -1
    RHS1      mccormick3[2,0]  -1
    RHS1      mccormick3[2,1]  -1
    RHS1      mccormick3[2,3]  -1
    RHS1      mccormick3[3,0]  -1
    RHS1      mccormick3[3,1]  -1
    RHS1      mccormick3[3,2]  -1
BOUNDS
 BV BND1      y[0,2]  
 BV BND1      y[0,3]  
 BV BND1      y[1,2]  
 BV BND1      y[1,3]  
 BV BND1      y[2,0]  
 BV BND1      y[2,1]  
 BV BND1      y[2,3]  
 BV BND1      y[3,0]  
 BV BND1      y[3,1]  
 BV BND1      y[3,2]  
 BV BND1      u[0,2]  
 BV BND1      u[0,3]  
 BV BND1      u[1,2]  
 BV BND1      u[1,3]  
 BV BND1      u[2,0]  
 BV BND1      u[2,1]  
 BV BND1      u[2,3]  
 BV BND1      u[3,0]  
 BV BND1      u[3,1]  
 BV BND1      u[3,2]  
 BV BND1      r[0,2]  
 BV BND1      r[0,3]  
 BV BND1      r[1,2]  
 BV BND1      r[1,3]  
 BV BND1      r[2,0]  
 BV BND1      r[2,1]  
 BV BND1      r[2,3]  
 BV BND1      r[3,0]  
 BV BND1      r[3,1]  
 BV BND1      r[3,2]  
ENDATA
